(set-logic ALL)
(declare-const k Int)
(declare-fun %b () (_ BitVec k))
(declare-fun %a () (_ BitVec k))
(assert (not (= (bvxor (bvand %a %b) (bvor %a %b)) (bvxor %a %b))))
(assert true)
(check-sat)